Results/Experiment 1 Results/Existing Benchmark/RES_20/i-20-75-9.txt
solutions: 2 nodes: 3  modelTime: 141  solveTime: 11  totalTime: 155  modelSize: 7358  readTime: 3 matchingSize: 10
