Results/Experiment 2 Results/Existing Benchmark/i-20-75-9.lp
clingo version 5.4.0
Reading from tempSRTISolver.lp ...
Solving...
Answer: 1
matched(10,2) matched(14,4) matched(1,5) matched(16,6) matched(18,7) matched(15,9) matched(2,10) matched(8,11) matched(13,12) matched(12,13) matched(4,14) matched(6,16) matched(7,18) matched(17,19) matched(3,20) matched(5,1) matched(20,3) matched(11,8) matched(9,15) matched(19,17)
Optimization: 64
Answer: 2
matched(19,2) matched(14,4) matched(18,5) matched(17,6) matched(13,7) matched(15,9) matched(1,10) matched(8,11) matched(16,12) matched(7,13) matched(4,14) matched(12,16) matched(5,18) matched(2,19) matched(3,20) matched(10,1) matched(20,3) matched(11,8) matched(9,15) matched(6,17)
Optimization: 61
OPTIMUM FOUND

Models       : 2
  Optimum    : yes
Optimization : 61
Calls        : 1
Time         : 0.031s (Solving: 0.00s 1st Model: 0.00s Unsat: 0.00s)
CPU Time     : 0.029s
